
Gurobi 8.1.1 (win64) logging started 07/10/20 07:23:24

Changed value of parameter LogFile to Results/instance1_30_3_BnC.log
   Prev: gurobi.log  Default: 
Changed value of parameter Heuristics to 0.0
   Prev: 0.05  Min: 0.0  Max: 1.0  Default: 0.05
Changed value of parameter lazyConstraints to 1
   Prev: 0  Min: 0  Max: 1  Default: 0
Changed value of parameter timeLimit to 6183.7354481220245
   Prev: 1e+100  Min: 0.0  Max: 1e+100  Default: 1e+100
Optimize a model with 3785 rows, 776 columns and 13192 nonzeros
Variable types: 456 continuous, 320 integer (320 binary)
Coefficient statistics:
  Matrix range     [2e-13, 2e+00]
  Objective range  [3e-05, 1e-02]
  Bounds range     [1e+00, 1e+00]
  RHS range        [2e-02, 3e+01]
Presolve removed 567 rows and 0 columns
Presolve time: 0.02s
Presolved: 3218 rows, 776 columns, 13934 nonzeros
Variable types: 456 continuous, 320 integer (320 binary)

Root relaxation: objective 2.032164e-01, 954 iterations, 0.05 seconds

    Nodes    |    Current Node    |     Objective Bounds      |     Work
 Expl Unexpl |  Obj  Depth IntInf | Incumbent    BestBd   Gap | It/Node Time

     0     0    0.20322    0   26          -    0.20322      -     -    0s
     0     0    0.20331    0   26          -    0.20331      -     -    0s
     0     0    0.20343    0   26          -    0.20343      -     -    0s
     0     0    0.20359    0   26          -    0.20359      -     -    0s
     0     0    0.20361    0   26          -    0.20361      -     -    0s
     0     0    0.20361    0   26          -    0.20361      -     -    0s
     0     2    0.20361    0   26          -    0.20361      -     -    0s
    25    25    0.21998   10   43          -    0.20381      -  99.2    5s
*   82    66              30       0.2333000    0.20381  12.6%  65.0   11s
   100    78    0.20512    3   42    0.23330    0.20420  12.5%  63.7   16s
*  102    52              43       0.2119087    0.20420  3.64%  63.4   17s
   119    55    0.20583    6   49    0.21191    0.20420  3.64%  59.3   21s
   148    80    0.21078   21    -    0.21191    0.20420  3.64%  69.2   25s
*  213    89              16       0.2101659    0.20509  2.42%  69.7   28s
*  214    86              14       0.2098698    0.20509  2.28%  69.4   30s
*  324    95              12       0.2088589    0.20568  1.52%  71.3   35s
*  390    45              12       0.2071210    0.20602  0.53%  74.5   39s

Cutting planes:
  Gomory: 5
  MIR: 1
  Lazy constraints: 425

Explored 503 nodes (35878 simplex iterations) in 39.49 seconds
Thread count was 4 (of 4 available processors)

Solution count 6: 0.207121 0.208859 0.20987 ... 0.2333

Optimal solution found (tolerance 1.00e-04)
Best objective 2.071210481406e-01, best bound 2.071210481406e-01, gap 0.0000%
